Problem:    
Rows:       113
Columns:    45 (34 integer, 34 binary)
Non-zeros:  350
Status:     INTEGER OPTIMAL
Objective:  value = 9.508944 (MINimum)

   No.   Row name        Activity     Lower bound   Upper bound
------ ------------    ------------- ------------- -------------
     1 r.5                   9.50894             0               
     2 r.6                  -1019.98      -1020.28               
     3 r.7                   1033.51             0               
     4 r.8                  -1014.49       -1022.3               
     5 r.9                   9.50894             0               
     6 r.10                  9.50894      -1019.06               
     7 r.11                  1033.51             0               
     8 r.12                  -1016.2       -1020.6               
     9 r.13                  1033.51             0               
    10 r.14                 -1014.49      -1016.05               
    11 r.15                  9.50894             0               
    12 r.16                  9.50894      -1015.99               
    13 r.17                  9.50894             0               
    14 r.18                  9.50894      -1019.09               
    15 r.19                  1033.51             0               
    16 r.20                 -1019.59      -1019.89               
    17 r.21                  1033.51             0               
    18 r.22                  -1023.7       -1023.7               
    19 r.23                  9.50894             0               
    20 r.24                 0.299444      -1022.85               
    21 r.25                        1             1             = 
    22 r.26                        1             1             = 
    23 r.27                        1             1             = 
    24 r.28                        1             1             = 
    25 r.29                        1             1             = 
    26 r.30                     1024             2               
    27 r.31                    -1024         -1025               
    28 r.32                  3077.49      -1019.06               
    29 r.33                        2             2               
    30 r.34                       -2         -1025               
    31 r.35                  -1.7047       -1020.6               
    32 r.36                     1025             2               
    33 r.37                    -1025         -1025               
    34 r.38                  3077.49      -1016.05               
    35 r.39                     1025             2               
    36 r.40                    -1025         -1025               
    37 r.41                     2048      -1015.99               
    38 r.42                     1024             2               
    39 r.43                    -1024         -1025               
    40 r.44                  3077.49      -1019.09               
    41 r.45                        2             2               
    42 r.46                       -2         -1025               
    43 r.47                  -5.1026      -1019.89               
    44 r.48                 -1020.28      -1020.28               
    45 r.49                 -1014.79       -1022.3               
    46 r.50                 -1020.28      -1020.28               
    47 r.51                 -1014.79       -1022.3               
    48 r.52                     1024             2               
    49 r.53                    -1024         -1025               
    50 r.54                  1018.51        3.7168               
    51 r.55                        2             2               
    52 r.56                       -2         -1025               
    53 r.57                   1.7047        1.7047               
    54 r.58                     1025             2               
    55 r.59                    -1025         -1025               
    56 r.60                     2048      -1016.05               
    57 r.61                     1025             2               
    58 r.62                    -1025         -1025               
    59 r.63                   2049.7      -1015.99               
    60 r.64                     1024             2               
    61 r.65                    -1024         -1025               
    62 r.66                     2048      -1019.09               
    63 r.67                        2             2               
    64 r.68                       -2         -1025               
    65 r.69                  -3.3979      -1019.89               
    66 r.70                   9.2095      -1019.06               
    67 r.71                  -1016.5       -1020.6               
    68 r.72                   9.2095      -1019.06               
    69 r.73                  -1016.5       -1020.6               
    70 r.74                     1025             2               
    71 r.75                    -1025         -1025               
    72 r.76                  1018.51        3.7168               
    73 r.77                     1025             2               
    74 r.78                    -1025         -1025               
    75 r.79                     2048        1.7047               
    76 r.80                     1025             2               
    77 r.81                    -1025         -1025               
    78 r.82                     2048        4.9401               
    79 r.83                     1025             2               
    80 r.84                    -1025         -1025               
    81 r.85                   2046.3        3.3979               
    82 r.86                     1025             2               
    83 r.87                    -1025         -1025               
    84 r.88                     2048      -1019.09               
    85 r.89                     1025             2               
    86 r.90                    -1025         -1025               
    87 r.91                   2042.9      -1019.89               
    88 r.92                 -1014.79      -1016.05               
    89 r.93                   9.2095      -1015.99               
    90 r.94                 -1014.79      -1016.05               
    91 r.95                   9.2095      -1015.99               
    92 r.96                     1024             2               
    93 r.97                    -1024         -1025               
    94 r.98                  1018.51        3.7168               
    95 r.99                        2             2               
    96 r.100                      -2         -1025               
    97 r.101                  5.1026        1.7047               
    98 r.102                    1024             2               
    99 r.103                   -1024         -1025               
   100 r.104                    2048        4.9401               
   101 r.105                       2             2               
   102 r.106                      -2         -1025               
   103 r.107                  3.3979        3.3979               
   104 r.108                    1025             2               
   105 r.109                   -1025         -1025               
   106 r.110                    2048        7.9525               
   107 r.111                    1025             2               
   108 r.112                   -1025         -1025               
   109 r.113                  2053.1        8.0107               
   110 r.114                  9.2095      -1019.09               
   111 r.115                -1019.89      -1019.89               
   112 r.116                  9.2095      -1019.09               
   113 r.117                -1019.89      -1019.89               

   No. Column name       Activity     Lower bound   Upper bound
------ ------------    ------------- ------------- -------------
     1 tt                    9.50894             0               
     2 s_1_1        *              0             0             1 
     3 t_1_1                 1029.49             0               
     4 s_2_1        *              1             0             1 
     5 t_2_1                       0             0               
     6 s_1_2        *              0             0             1 
     7 t_1_2                       0             0               
     8 s_2_2        *              1             0             1 
     9 t_2_2                  1.7047             0               
    10 s_1_3        *              1             0             1 
    11 t_1_3                       0             0               
    12 s_2_3        *              0             0             1 
    13 t_2_3                       0             0               
    14 s_1_4        *              0             0             1 
    15 t_1_4                       0             0               
    16 s_2_4        *              1             0             1 
    17 t_2_4                  5.1026             0               
    18 s_1_5        *              1             0             1 
    19 t_1_5                  9.2095             0               
    20 s_2_5        *              0             0             1 
    21 t_2_5                  9.2095             0               
    22 r_1_1_2      *              1             0             1 
    23 u_1_1_2      *              0             0             1 
    24 r_2_1_2      *              0             0             1 
    25 u_2_1_2      *              0             0             1 
    26 r_1_1_3      *              1             0             1 
    27 u_1_1_3      *              0             0             1 
    28 r_2_1_3      *              1             0             1 
    29 u_2_1_3      *              0             0             1 
    30 r_1_1_4      *              1             0             1 
    31 u_1_1_4      *              0             0             1 
    32 r_2_1_4      *              0             0             1 
    33 u_2_1_4      *              0             0             1 
    34 r_1_2_3      *              1             0             1 
    35 u_1_2_3      *              0             0             1 
    36 r_2_2_3      *              1             0             1 
    37 u_2_2_3      *              0             0             1 
    38 r_1_2_4      *              1             0             1 
    39 u_1_2_4      *              0             0             1 
    40 r_2_2_4      *              0             0             1 
    41 u_2_2_4      *              0             0             1 
    42 r_1_3_4      *              1             0             1 
    43 u_1_3_4      *              0             0             1 
    44 r_2_3_4      *              1             0             1 
    45 u_2_3_4      *              0             0             1 

Integer feasibility conditions:

KKT.PE: max.abs.err = 2.27e-13 on row 18
        max.rel.err = 1.08e-16 on row 18
        High quality

KKT.PB: max.abs.err = 3.41e-13 on row 46
        max.rel.err = 3.34e-16 on row 46
        High quality

End of output
